NAME : d198
TYPE : OP
DIMENSION : 198
COST_LIMIT : 7890
ROUTE_NODES : 112
ROUTE_SCORE : 6660
ROUTE_COST : 7889
NODE_SEQUENCE_SECTION
1
16
17
23
22
24
21
25
26
27
28
33
30
32
37
38
45
54
61
66
62
65
52
47
51
50
64
77
78
80
91
79
92
105
114
113
112
106
107
111
110
118
119
120
169
125
126
130
132
133
135
134
140
142
143
147
146
145
150
149
152
162
161
160
138
123
121
117
116
115
104
103
102
101
94
95
96
90
89
82
74
83
88
98
99
87
84
73
72
68
67
60
59
56
55
44
43
42
57
58
69
71
13
12
11
10
9
8
5
4
6
3
-1
DEPOT_SECTION
1
-1
EOF
